Data path: /scratch/opt/lxu/CFLG/benchmarks/tree_A
Instance: treeA.600.60
Result path: /scratch/opt/lxu/CFLG/results/tree_A
Solver: Gurobi
Time limit: 7200
Formulation: LEFPAD
Cover: Small
julia --project=. src/main.jl /scratch/opt/lxu/CFLG/benchmarks/tree_A treeA.600.60 /scratch/opt/lxu/CFLG/results/tree_A Gurobi 7200 LEFPAD Small
The latest version of Julia in the `release` channel is 1.11.5+0.x64.linux.gnu. You currently have `1.11.4+0.x64.linux.gnu` installed. Run:

  juliaup update

in your terminal shell to install Julia 1.11.5+0.x64.linux.gnu and update the `release` channel to that version.
/scratch/opt/lxu/CFLG/benchmarks/tree_A Gurobi 7200.0 /scratch/opt/lxu/CFLG/results/tree_A treeA.600.60 LEFPAD Small
/scratch/opt/lxu/CFLG/benchmarks/tree_A/treeA.600.60

 read graph
data loaded


after absorb:383 600

max_piece:40
problem_graph/original graph: node: 383/600 edge: 442/659 dlt: 0.3739600769623488 break_avg_len: 2.230223445413463 break_max_len: 14.840463067393014Vbar/V, Ebar/E(172, 383, 231, 442)
Set parameter TokenServer to value "solice01.zib.de"
Set parameter Threads to value 1
Set parameter OutputFlag to value 1
Gurobi Optimizer version 12.0.1 build v12.0.1rc0 (linux64 - "Debian GNU/Linux 12 (bookworm)")

CPU model: Intel(R) Xeon(R) Gold 5122 CPU @ 3.60GHz, instruction set [SSE2|AVX|AVX2|AVX512]
Thread count: 8 physical cores, 16 logical processors, using up to 1 threads

Non-default parameters:
Threads  1

Optimize a model with 617 rows, 1014 columns and 1690 nonzeros
Model fingerprint: 0x96f69fb6
Coefficient statistics:
  Matrix range     [1e+00, 1e+00]
  Objective range  [1e+00, 1e+00]
  Bounds range     [1e+00, 1e+00]
  RHS range        [1e+00, 1e+00]
Presolve removed 617 rows and 1014 columns
Presolve time: 0.00s
Presolve: All rows and columns removed
Iteration    Objective       Primal Inf.    Dual Inf.      Time
       0    1.0700000e+02   0.000000e+00   0.000000e+00      0s

Solved in 0 iterations and 0.00 seconds (0.00 work units)
Optimal objective  1.070000000e+02

User-callback calls 35, time in user-callback 0.01 sec
elapsed CPU time: 1.503928 seconds
Set parameter TokenServer to value "solice01.zib.de"
Set parameter Threads to value 1
Set parameter OutputFlag to value 1
Set parameter MIPGap to value 0.0001
Set parameter MIPGapAbs to value 0.999998
Set parameter TimeLimit to value 7198.496072

 more cuts: false 0.3739600769623488 false
is_attach:trueformulation:LEFPAD0 338 0

 model loaded

Gurobi Optimizer version 12.0.1 build v12.0.1rc0 (linux64 - "Debian GNU/Linux 12 (bookworm)")

CPU model: Intel(R) Xeon(R) Gold 5122 CPU @ 3.60GHz, instruction set [SSE2|AVX|AVX2|AVX512]
Thread count: 8 physical cores, 16 logical processors, using up to 1 threads

Non-default parameters:
TimeLimit  7198.496072
MIPGapAbs  0.999998
Threads  1

Optimize a model with 5012 rows, 4043 columns and 12371 nonzeros
Model fingerprint: 0x32e3069f
Variable types: 1882 continuous, 2161 integer (2161 binary)
Coefficient statistics:
  Matrix range     [2e-03, 1e+01]
  Objective range  [1e+00, 1e+00]
  Bounds range     [3e-03, 1e+01]
  RHS range        [1e-06, 1e+01]
Presolve removed 3490 rows and 2400 columns
Presolve time: 0.02s
Presolved: 1522 rows, 1643 columns, 4584 nonzeros
Variable types: 914 continuous, 729 integer (729 binary)
Found heuristic solution: objective 859.0000000

Explored 0 nodes (0 simplex iterations) in 0.03 seconds (0.02 work units)
Thread count was 1 (of 16 available processors)

Solution count 1: 859 

Optimal solution found (tolerance 1.00e-04)
Best objective 8.590000000000e+02, best bound 8.590000000000e+02, gap 0.0000%

User-callback calls 540, time in user-callback 0.00 sec

 sepatime0 0 0
859.0Stat(MathOptInterface.OPTIMAL, 859.0, 859.0, 0.0, 0.0, 1.503928, 0.03053903579711914, 0, Main.CFLG.LEFPAD, "", #undef)
ERROR: LoadError: SystemError: opening file "/scratch/opt/lxu/CFLG/results/tree_A/treeA.600.60.LEFPAD.Small": No such file or directory
Stacktrace:
 [1] systemerror(p::String, errno::Int32; extrainfo::Nothing)
   @ Base ./error.jl:176
 [2] systemerror
   @ ./error.jl:175 [inlined]
 [3] open(fname::String; lock::Bool, read::Nothing, write::Nothing, create::Nothing, truncate::Bool, append::Nothing)
   @ Base ./iostream.jl:295
 [4] open
   @ ./iostream.jl:277 [inlined]
 [5] open(fname::String, mode::String; lock::Bool)
   @ Base ./iostream.jl:358
 [6] open
   @ ./iostream.jl:357 [inlined]
 [7] main(args::Vector{String})
   @ Main /scratch/opt/lxu/CFLG/src/main.jl:51
 [8] top-level scope
   @ /scratch/opt/lxu/CFLG/src/main.jl:57
in expression starting at /scratch/opt/lxu/CFLG/src/main.jl:57
srun: error: htc-cmp439: task 0: Exited with exit code 1
